problems/csplib-prob013/ProgressivePartyProblem-models/noch/O0/minion/model_1_1-Ian01-solution000001.solution
language Essence 1.3

letting hosts be {2, 3, 4, 5}
letting sched be
        {function(1 --> 2, 2 --> 2, 3 --> 3, 4 --> 4, 5 --> 5), function(1 --> 3, 2 --> 2, 3 --> 3, 4 --> 4, 5 --> 5),
         function(1 --> 4, 2 --> 2, 3 --> 3, 4 --> 4, 5 --> 5), function(1 --> 5, 2 --> 2, 3 --> 3, 4 --> 4, 5 --> 5)}
